# --time def--
variable TIME_STEPS	equal 15000000 #30 ns 
variable THERMO_STEP    equal 10
variable DUMP_STEP      equal 50000 #0.1ns
variable EQUIL_STEPS1   equal 15000 #initial temp/press equil
variable EQUIL_STEPS2   equal 15000 #measure avg box
variable dt             equal 0.002

variable FINAL_TIME     equal ${TIME_STEPS}*${dt}*0.001 #in ns

# --seed def--
variable SEED equal 6978 

# --temp def--
variable T		equal 2200
variable T_DAMP         equal 0.5

# --press def--
variable P              equal 0
variable P_DAMP 	equal 0.5 
variable P_DRAG 	equal 2 


# --init--
units       metal
boundary    p p p
atom_style  atomic


# --atom def--
read_data "atoms.data"
mass 1 12.011 #C
mass 2 28.085 #Si

# --settings--
pair_style  vashishta
pair_coeff  * * SiC.vashishta C Si
timestep        ${dt}

# --computes
compute msd all msd


velocity        all create ${T} ${SEED}
thermo_style    custom step time temp press vol etotal ke pe lx ly lz pxx pyy pzz pxy pxz pyz c_msd[4] spcpu cpuremain
fix             1 all npt/kk temp ${T} ${T} ${T_DAMP} aniso ${P} ${P} ${P_DAMP} drag ${P_DRAG}
dump            1 all custom ${DUMP_STEP} trajectories.dump id type x y z vx vy vz
thermo          ${THERMO_STEP}

# --equil--
run             ${EQUIL_STEPS1}

reset_timestep 0

variable xlo equal xlo
variable ylo equal ylo
variable zlo equal zlo
variable xhi equal xhi
variable yhi equal yhi
variable zhi equal zhi


fix avgLen all ave/time 1 ${EQUIL_STEPS2} ${EQUIL_STEPS2} v_xlo v_ylo v_zlo &
                                                          v_xhi v_yhi v_zhi &
                                                          format %.10g &
                                                          file lengths.out
# --measure box length
run ${EQUIL_STEPS2}

variable x0 equal f_avgLen[1]
variable y0 equal f_avgLen[2]
variable z0 equal f_avgLen[3]
variable x1 equal f_avgLen[4]
variable y1 equal f_avgLen[5]
variable z1 equal f_avgLen[6]

print ${x0}
print ${y0}
print ${z0}
print ${x1}
print ${y1}
print ${z1}

# --set box to average of above measured size
change_box all x final ${x0} ${x1} &
               y final ${y0} ${y1} &
               z final ${z0} ${z1}

unfix 1

# --run--
fix             1 all nvt/kk temp ${T} ${T} ${T_DAMP}
run ${TIME_STEPS}

# --restart data
write_restart restart_0.restart

